NAME F-JSSP-SDST
ROWS
 N  OBJ
 E  c0      
 E  c1      
 E  c2      
 E  c3      
 L  c4      
 L  c5      
 L  c6      
 L  c7      
 L  c8      
 L  c9      
 G  c10     
 G  c11     
 G  c12     
 G  c13     
 G  c14     
 G  c15     
 G  c16     
 G  c17     
 G  c18     
 G  c19     
 G  c20     
 G  c21     
 G  c22     
 G  c23     
 G  c24     
 G  c25     
 G  c26     
 G  c27     
 G  c28     
 G  c29     
 G  c30     
 G  c31     
 G  c32     
 G  c33     
 G  c34     
 L  c35     
 G  c36     
 L  c37     
 G  c38     
 L  c39     
 G  c40     
 L  c41     
 G  c42     
 L  c43     
 G  c44     
 L  c45     
 G  OF_constraint
COLUMNS
    MARKER    'MARKER'                 'INTORG'
    B0(8)     c0        1
    B0(8)     c4        -1000000000
    B0(8)     c10       -43
    B0(8)     c11       -1000000043
    B0(8)     c14       -1000000000
    B0(8)     c15       -1000000000
    B0(8)     c34       43
    B0(8)     c35       43
    B1(7)     c1        1
    B1(7)     c5        -1000000000
    B1(7)     c11       -1000000000
    B1(7)     c16       -1000000000
    B1(7)     c17       -1000000000
    B1(7)     c36       64
    B1(7)     c37       64
    B2(8)     c1        1
    B2(8)     c6        -1000000000
    B2(8)     c18       -1000000000
    B2(8)     c19       -1000000000
    B2(8)     c20       -1000000000
    B2(8)     c21       -1000000000
    B2(8)     c38       71
    B2(8)     c39       71
    B3(11)    c2        1
    B3(11)    c7        -1000000000
    B3(11)    c12       -21
    B3(11)    c13       -21
    B3(11)    c14       -1000000000
    B3(11)    c15       -1000000000
    B3(11)    c16       -1000000000
    B3(11)    c17       -1000000000
    B3(11)    c28       -9
    B3(11)    c40       21
    B3(11)    c41       21
    B4(9)     c2        1
    B4(9)     c8        -1000000000
    B4(9)     c12       -35
    B4(9)     c13       -1000000035
    B4(9)     c18       -1000000000
    B4(9)     c19       -1000000000
    B4(9)     c30       -9
    B4(9)     c42       35
    B4(9)     c43       35
    B5(8)     c3        1
    B5(8)     c9        -1000000000
    B5(8)     c13       -1000000000
    B5(8)     c20       -1000000000
    B5(8)     c21       -1000000000
    B5(8)     c32       -9
    B5(8)     c44       43
    B5(8)     c45       43
    B6(0)     OBJ       0
    B7(0)     OBJ       0
    B8(2)     c14       -1000000000
    B8(2)     c15       1000000000
    B9(0)     OBJ       0
    B10(0)    OBJ       0
    B11(0)    OBJ       0
    B12(4)    c16       -1000000000
    B12(4)    c17       1000000000
    B12(4)    c18       -1000000000
    B12(4)    c19       1000000000
    B13(2)    c20       -1000000000
    B13(2)    c21       1000000000
    B14(0)    OBJ       0
    B15(0)    OBJ       0
    B16(0)    OBJ       0
    B17(0)    OBJ       0
    B18(0)    OBJ       0
    B19(0)    OBJ       0
    B20(0)    OBJ       0
    B21(0)    OBJ       0
    I22(9)    c4        1
    I22(9)    c10       -1
    I22(9)    c11       -1
    I22(9)    c14       1
    I22(9)    c15       -1
    I22(9)    c22       1
    I22(9)    c23       1
    I22(9)    c34       1
    I22(9)    c35       1
    I23(10)   c5        1
    I23(10)   c10       1
    I23(10)   c11       1
    I23(10)   c16       1
    I23(10)   c17       -1
    I23(10)   c24       1
    I23(10)   c25       1
    I23(10)   c36       1
    I23(10)   c37       1
    I24(12)   c6        1
    I24(12)   c10       1
    I24(12)   c11       1
    I24(12)   c18       1
    I24(12)   c19       -1
    I24(12)   c20       1
    I24(12)   c21       -1
    I24(12)   c26       1
    I24(12)   c27       1
    I24(12)   c38       1
    I24(12)   c39       1
    I25(11)   c7        1
    I25(11)   c12       -1
    I25(11)   c13       -1
    I25(11)   c14       -1
    I25(11)   c15       1
    I25(11)   c16       -1
    I25(11)   c17       1
    I25(11)   c28       1
    I25(11)   c29       1
    I25(11)   c40       1
    I25(11)   c41       1
    I26(9)    c8        1
    I26(9)    c12       -1
    I26(9)    c13       -1
    I26(9)    c18       -1
    I26(9)    c19       1
    I26(9)    c30       1
    I26(9)    c31       1
    I26(9)    c42       1
    I26(9)    c43       1
    I27(10)   c9        1
    I27(10)   c12       1
    I27(10)   c13       1
    I27(10)   c20       -1
    I27(10)   c21       1
    I27(10)   c32       1
    I27(10)   c33       1
    I27(10)   c44       1
    I27(10)   c45       1
    I28(1)    OBJ       1
    I28(1)    OF_constraint  1
    B29(2)    c34       -1000000000
    B29(2)    c35       -1000000000
    B30(4)    c36       -1000000000
    B30(4)    c37       -1000000000
    B30(4)    OF_constraint  -26
    B31(4)    c38       -1000000000
    B31(4)    c39       -1000000000
    B31(4)    OF_constraint  -33
    B32(2)    c40       -1000000000
    B32(2)    c41       -1000000000
    B33(2)    c42       -1000000000
    B33(2)    c43       -1000000000
    B34(4)    c44       -1000000000
    B34(4)    c45       -1000000000
    B34(4)    OF_constraint  -9
    MARKER    'MARKER'                 'INTEND'
RHS
    RHS1      c0        1
    RHS1      c1        1
    RHS1      c2        1
    RHS1      c3        1
    RHS1      c11       -1999999995
    RHS1      c13       -1999999995
    RHS1      c14       -2999999974
    RHS1      c15       -1999999952
    RHS1      c16       -2999999975
    RHS1      c17       -1999999933
    RHS1      c18       -2999999960
    RHS1      c19       -1999999926
    RHS1      c20       -2999999953
    RHS1      c21       -1999999924
    RHS1      c34       -999999962
    RHS1      c35       38
    RHS1      c36       -999999962
    RHS1      c37       38
    RHS1      c38       -999999962
    RHS1      c39       38
    RHS1      c40       -999999966
    RHS1      c41       34
    RHS1      c42       -999999966
    RHS1      c43       34
    RHS1      c44       -999999966
    RHS1      c45       34
BOUNDS
 BV BND1      B0(8)   
 BV BND1      B1(7)   
 BV BND1      B2(8)   
 BV BND1      B3(11)  
 BV BND1      B4(9)   
 BV BND1      B5(8)   
 BV BND1      B6(0)   
 BV BND1      B7(0)   
 BV BND1      B8(2)   
 BV BND1      B9(0)   
 BV BND1      B10(0)  
 BV BND1      B11(0)  
 BV BND1      B12(4)  
 BV BND1      B13(2)  
 BV BND1      B14(0)  
 BV BND1      B15(0)  
 BV BND1      B16(0)  
 BV BND1      B17(0)  
 BV BND1      B18(0)  
 BV BND1      B19(0)  
 BV BND1      B20(0)  
 BV BND1      B21(0)  
 LI BND1      I22(9)    0
 LI BND1      I23(10)   0
 LI BND1      I24(12)   0
 LI BND1      I25(11)   0
 LI BND1      I26(9)    0
 LI BND1      I27(10)   0
 LI BND1      I28(1)    0
 BV BND1      B29(2)  
 BV BND1      B30(4)  
 BV BND1      B31(4)  
 BV BND1      B32(2)  
 BV BND1      B33(2)  
 BV BND1      B34(4)  
QCMATRIX   OF_constraint
    I23(10)   B30(4)    -0.5
    B30(4)    I23(10)   -0.5
    I24(12)   B31(4)    -0.5
    B31(4)    I24(12)   -0.5
    I27(10)   B34(4)    -0.5
    B34(4)    I27(10)   -0.5
ENDATA
